unsat
(:added-eqs                       556894
 :arith-eq-adapter                1004
 :arith-bound-propagations-lp     25888
 :arith-branch                    35
 :arith-conflicts                 8102
 :arith-cube-calls                14
 :arith-diseq                     70681
 :arith-fixed-eqs                 45250
 :arith-gcd-calls                 401
 :arith-gomory-cuts               2
 :arith-grobner-calls             799
 :arith-grobner-conflicts         245
 :arith-hnf-calls                 3
 :arith-horner-calls              191
 :arith-horner-conflicts          4
 :arith-horner-cross-nested-forms 13169
 :arith-lower                     215763
 :arith-make-feasible             60097
 :arith-max-columns               909
 :arith-max-rows                  467
 :arith-nla-add-bounds            141
 :arith-nla-lemmas                1797
 :arith-nla-propagate-bounds      895
 :arith-nla-propagate-eq          118191
 :arith-nra-calls                 49
 :arith-offset-eqs                53124
 :arith-patches                   401
 :arith-patches-success           343
 :arith-upper                     312491
 :binary-propagations             1449895
 :card2bv-rewrites                1
 :cnf-encoding-aux-vars           19
 :conflicts                       19195
 :decisions                       122757
 :del-clause                      16874
 :elim-unconstrained              50
 :final-checks                    1595
 :max-memory                      121.98
 :memory                          91.97
 :minimized-lits                  79729
 :mk-bool-var                     8100
 :mk-clause                       31444
 :mk-clause-binary                9780
 :nlsat-conflicts                 8455
 :nlsat-decisions                 3451
 :nlsat-irrational-assignments    28
 :nlsat-propagations              220068
 :nlsat-stages                    80621
 :num-allocs                      5985766910.00
 :num-checks                      2
 :propagations                    2239828
 :restarts                        131
 :rlimit-count                    17627912
 :sat-mk-clause-2ary              32922
 :sat-mk-clause-nary              45547
 :sat-mk-var                      22697
 :solve-eqs-elim-vars             57
 :solve-eqs-steps                 926
 :time                            9.49
 :total-time                      9.50)
